3
30
0 42 40 41 63 21 60 20 46 35 68 70 59 69 19 36 4 28 44 26 51 7 6 45 33 66 74 67 5 32
27
0 61 27 73 47 14 56 12 53 18 34 52 13 58 10 65 64 37 9 71 38 8 31 43 2 15 62
21
0 55 22 48 23 17 49 24 54 30 57 11 39 50 16 25 75 3 29 1 72
